c Result of efficient AIG-to-CNF conversion using package CNF
p cnf 239 823
-2 3 169 170 173 0
-2 -3 -169 170 173 0
2 -173 0
2 -3 169 0
2 -170 0
2 3 -169 0
3 -208 -92 0
3 -208 -4 0
3 -4 -92 0
-3 4 92 0
-3 208 92 0
-3 208 4 0
-4 -5 -34 0
-4 5 34 0
4 5 -34 0
4 -5 34 0
5 176 -6 0
5 -176 6 0
-5 -176 -6 0
-5 176 6 0
6 -208 7 0
6 208 -7 0
-6 208 7 0
-6 -208 -7 0
-7 209 8 0
7 -209 0
7 -8 0
-8 210 9 0
8 -210 0
8 -9 0
-9 211 10 0
9 -211 0
9 -10 0
-10 212 11 0
10 -212 0
10 -11 0
-11 213 12 0
11 -213 0
11 -12 0
-12 214 13 0
12 -214 0
12 -13 0
-13 215 14 0
13 -215 0
13 -14 0
-14 216 15 0
14 -216 0
14 -15 0
-15 217 16 0
15 -217 0
15 -16 0
-16 218 17 0
16 -218 0
16 -17 0
-17 219 18 0
17 -219 0
17 -18 0
-18 220 19 0
18 -220 0
18 -19 0
-19 221 20 0
19 -221 0
19 -20 0
-20 222 21 0
20 -222 0
20 -21 0
-21 223 22 0
21 -223 0
21 -22 0
-22 224 23 0
22 -224 0
22 -23 0
-23 225 24 0
23 -225 0
23 -24 0
-24 226 25 0
24 -226 0
24 -25 0
-25 227 26 0
25 -227 0
25 -26 0
-26 228 27 0
26 -228 0
26 -27 0
-27 229 28 0
27 -229 0
27 -28 0
-28 230 29 0
28 -230 0
28 -29 0
-29 231 30 0
29 -231 0
29 -30 0
-30 232 31 0
30 -232 0
30 -31 0
-31 233 32 0
31 -233 0
31 -32 0
-32 234 33 0
32 -234 0
32 -33 0
-33 235 236 237 238 0
33 -238 0
33 -237 0
33 -235 0
33 -236 0
34 -177 -35 0
34 -35 -36 0
34 -177 -36 0
-34 177 36 0
-34 35 36 0
-34 177 35 0
35 -209 8 0
35 209 -8 0
-35 209 8 0
-35 -209 -8 0
36 -178 -37 0
36 -37 -38 0
36 -178 -38 0
-36 178 38 0
-36 37 38 0
-36 178 37 0
37 -210 9 0
37 210 -9 0
-37 210 9 0
-37 -210 -9 0
38 -179 -39 0
38 -39 -40 0
38 -179 -40 0
-38 179 40 0
-38 39 40 0
-38 179 39 0
39 -211 10 0
39 211 -10 0
-39 211 10 0
-39 -211 -10 0
40 -180 -41 0
40 -41 -42 0
40 -180 -42 0
-40 180 42 0
-40 41 42 0
-40 180 41 0
41 -212 11 0
41 212 -11 0
-41 212 11 0
-41 -212 -11 0
42 -181 -43 0
42 -43 -44 0
42 -181 -44 0
-42 181 44 0
-42 43 44 0
-42 181 43 0
43 -213 12 0
43 213 -12 0
-43 213 12 0
-43 -213 -12 0
44 -182 -45 0
44 -45 -46 0
44 -182 -46 0
-44 182 46 0
-44 45 46 0
-44 182 45 0
45 -214 13 0
45 214 -13 0
-45 214 13 0
-45 -214 -13 0
46 -183 -47 0
46 -47 -48 0
46 -183 -48 0
-46 183 48 0
-46 47 48 0
-46 183 47 0
47 -215 14 0
47 215 -14 0
-47 215 14 0
-47 -215 -14 0
48 -184 -49 0
48 -49 -50 0
48 -184 -50 0
-48 184 50 0
-48 49 50 0
-48 184 49 0
49 -216 15 0
49 216 -15 0
-49 216 15 0
-49 -216 -15 0
50 -185 -51 0
50 -51 -52 0
50 -185 -52 0
-50 185 52 0
-50 51 52 0
-50 185 51 0
51 -217 16 0
51 217 -16 0
-51 217 16 0
-51 -217 -16 0
52 -186 -53 0
52 -53 -54 0
52 -186 -54 0
-52 186 54 0
-52 53 54 0
-52 186 53 0
53 -218 17 0
53 218 -17 0
-53 218 17 0
-53 -218 -17 0
54 -187 -55 0
54 -55 -56 0
54 -187 -56 0
-54 187 56 0
-54 55 56 0
-54 187 55 0
55 -219 18 0
55 219 -18 0
-55 219 18 0
-55 -219 -18 0
56 -188 -57 0
56 -57 -58 0
56 -188 -58 0
-56 188 58 0
-56 57 58 0
-56 188 57 0
57 -220 19 0
57 220 -19 0
-57 220 19 0
-57 -220 -19 0
58 -189 -59 0
58 -59 -60 0
58 -189 -60 0
-58 189 60 0
-58 59 60 0
-58 189 59 0
59 -221 20 0
59 221 -20 0
-59 221 20 0
-59 -221 -20 0
60 -190 -61 0
60 -61 -62 0
60 -190 -62 0
-60 190 62 0
-60 61 62 0
-60 190 61 0
61 -222 21 0
61 222 -21 0
-61 222 21 0
-61 -222 -21 0
62 -191 -63 0
62 -63 -64 0
62 -191 -64 0
-62 191 64 0
-62 63 64 0
-62 191 63 0
63 -223 22 0
63 223 -22 0
-63 223 22 0
-63 -223 -22 0
64 -192 -65 0
64 -65 -66 0
64 -192 -66 0
-64 192 66 0
-64 65 66 0
-64 192 65 0
65 -224 23 0
65 224 -23 0
-65 224 23 0
-65 -224 -23 0
66 -193 -67 0
66 -67 -68 0
66 -193 -68 0
-66 193 68 0
-66 67 68 0
-66 193 67 0
67 -225 24 0
67 225 -24 0
-67 225 24 0
-67 -225 -24 0
68 -194 -69 0
68 -69 -70 0
68 -194 -70 0
-68 194 70 0
-68 69 70 0
-68 194 69 0
69 -226 25 0
69 226 -25 0
-69 226 25 0
-69 -226 -25 0
70 -195 -71 0
70 -71 -72 0
70 -195 -72 0
-70 195 72 0
-70 71 72 0
-70 195 71 0
71 -227 26 0
71 227 -26 0
-71 227 26 0
-71 -227 -26 0
72 -196 -73 0
72 -73 -74 0
72 -196 -74 0
-72 196 74 0
-72 73 74 0
-72 196 73 0
73 -228 27 0
73 228 -27 0
-73 228 27 0
-73 -228 -27 0
74 -197 -75 0
74 -75 -76 0
74 -197 -76 0
-74 197 76 0
-74 75 76 0
-74 197 75 0
75 -229 28 0
75 229 -28 0
-75 229 28 0
-75 -229 -28 0
76 -198 -77 0
76 -77 -78 0
76 -198 -78 0
-76 198 78 0
-76 77 78 0
-76 198 77 0
77 -230 29 0
77 230 -29 0
-77 230 29 0
-77 -230 -29 0
78 -199 -79 0
78 -79 -80 0
78 -199 -80 0
-78 199 80 0
-78 79 80 0
-78 199 79 0
79 -231 30 0
79 231 -30 0
-79 231 30 0
-79 -231 -30 0
80 -200 -81 0
80 -81 -82 0
80 -200 -82 0
-80 200 82 0
-80 81 82 0
-80 200 81 0
81 -232 31 0
81 232 -31 0
-81 232 31 0
-81 -232 -31 0
82 -201 -83 0
82 -83 -84 0
82 -201 -84 0
-82 201 84 0
-82 83 84 0
-82 201 83 0
83 -233 32 0
83 233 -32 0
-83 233 32 0
-83 -233 -32 0
84 -202 -85 0
84 -85 -86 0
84 -202 -86 0
-84 202 86 0
-84 85 86 0
-84 202 85 0
85 -234 33 0
85 234 -33 0
-85 234 33 0
-85 -234 -33 0
86 -203 -87 0
86 -87 -89 0
86 -203 -89 0
-86 203 89 0
-86 87 89 0
-86 203 87 0
87 -235 88 0
87 235 -88 0
-87 235 88 0
-87 -235 -88 0
-88 236 237 238 0
88 -236 0
88 -238 0
88 -237 0
89 -204 -236 91 0
89 -204 236 -90 0
89 236 -90 91 0
-89 204 -91 0
-89 -236 -91 0
-89 204 -236 0
-89 236 90 0
-90 237 238 0
90 -237 0
90 -238 0
91 205 -237 0
91 206 -237 -238 0
91 205 206 -238 0
-91 -205 -206 0
-91 -206 237 0
-91 -205 237 0
-91 237 238 0
-91 -205 238 0
92 -209 -95 0
92 -209 -93 0
92 -93 -95 0
-92 93 95 0
-92 209 95 0
-92 209 93 0
-93 -36 -94 0
-93 36 94 0
93 36 -94 0
93 -36 94 0
94 177 -35 0
94 -177 35 0
-94 -177 -35 0
-94 177 35 0
95 -210 -98 0
95 -210 -96 0
95 -96 -98 0
-95 96 98 0
-95 210 98 0
-95 210 96 0
-96 -38 -97 0
-96 38 97 0
96 38 -97 0
96 -38 97 0
97 178 -37 0
97 -178 37 0
-97 -178 -37 0
-97 178 37 0
98 -211 -101 0
98 -211 -99 0
98 -99 -101 0
-98 99 101 0
-98 211 101 0
-98 211 99 0
-99 -40 -100 0
-99 40 100 0
99 40 -100 0
99 -40 100 0
100 179 -39 0
100 -179 39 0
-100 -179 -39 0
-100 179 39 0
101 -212 -104 0
101 -212 -102 0
101 -102 -104 0
-101 102 104 0
-101 212 104 0
-101 212 102 0
-102 -42 -103 0
-102 42 103 0
102 42 -103 0
102 -42 103 0
103 180 -41 0
103 -180 41 0
-103 -180 -41 0
-103 180 41 0
104 -213 -107 0
104 -213 -105 0
104 -105 -107 0
-104 105 107 0
-104 213 107 0
-104 213 105 0
-105 -44 -106 0
-105 44 106 0
105 44 -106 0
105 -44 106 0
106 181 -43 0
106 -181 43 0
-106 -181 -43 0
-106 181 43 0
107 -214 -110 0
107 -214 -108 0
107 -108 -110 0
-107 108 110 0
-107 214 110 0
-107 214 108 0
-108 -46 -109 0
-108 46 109 0
108 46 -109 0
108 -46 109 0
109 182 -45 0
109 -182 45 0
-109 -182 -45 0
-109 182 45 0
110 -215 -113 0
110 -215 -111 0
110 -111 -113 0
-110 111 113 0
-110 215 113 0
-110 215 111 0
-111 -48 -112 0
-111 48 112 0
111 48 -112 0
111 -48 112 0
112 183 -47 0
112 -183 47 0
-112 -183 -47 0
-112 183 47 0
113 -216 -116 0
113 -216 -114 0
113 -114 -116 0
-113 114 116 0
-113 216 116 0
-113 216 114 0
-114 -50 -115 0
-114 50 115 0
114 50 -115 0
114 -50 115 0
115 184 -49 0
115 -184 49 0
-115 -184 -49 0
-115 184 49 0
116 -217 -119 0
116 -217 -117 0
116 -117 -119 0
-116 117 119 0
-116 217 119 0
-116 217 117 0
-117 -52 -118 0
-117 52 118 0
117 52 -118 0
117 -52 118 0
118 185 -51 0
118 -185 51 0
-118 -185 -51 0
-118 185 51 0
119 -218 -122 0
119 -218 -120 0
119 -120 -122 0
-119 120 122 0
-119 218 122 0
-119 218 120 0
-120 -54 -121 0
-120 54 121 0
120 54 -121 0
120 -54 121 0
121 186 -53 0
121 -186 53 0
-121 -186 -53 0
-121 186 53 0
122 -219 -125 0
122 -219 -123 0
122 -123 -125 0
-122 123 125 0
-122 219 125 0
-122 219 123 0
-123 -56 -124 0
-123 56 124 0
123 56 -124 0
123 -56 124 0
124 187 -55 0
124 -187 55 0
-124 -187 -55 0
-124 187 55 0
125 -220 -128 0
125 -220 -126 0
125 -126 -128 0
-125 126 128 0
-125 220 128 0
-125 220 126 0
-126 -58 -127 0
-126 58 127 0
126 58 -127 0
126 -58 127 0
127 188 -57 0
127 -188 57 0
-127 -188 -57 0
-127 188 57 0
128 -221 -131 0
128 -221 -129 0
128 -129 -131 0
-128 129 131 0
-128 221 131 0
-128 221 129 0
-129 -60 -130 0
-129 60 130 0
129 60 -130 0
129 -60 130 0
130 189 -59 0
130 -189 59 0
-130 -189 -59 0
-130 189 59 0
131 -222 -134 0
131 -222 -132 0
131 -132 -134 0
-131 132 134 0
-131 222 134 0
-131 222 132 0
-132 -62 -133 0
-132 62 133 0
132 62 -133 0
132 -62 133 0
133 190 -61 0
133 -190 61 0
-133 -190 -61 0
-133 190 61 0
134 -223 -137 0
134 -223 -135 0
134 -135 -137 0
-134 135 137 0
-134 223 137 0
-134 223 135 0
-135 -64 -136 0
-135 64 136 0
135 64 -136 0
135 -64 136 0
136 191 -63 0
136 -191 63 0
-136 -191 -63 0
-136 191 63 0
137 -224 -140 0
137 -224 -138 0
137 -138 -140 0
-137 138 140 0
-137 224 140 0
-137 224 138 0
-138 -66 -139 0
-138 66 139 0
138 66 -139 0
138 -66 139 0
139 192 -65 0
139 -192 65 0
-139 -192 -65 0
-139 192 65 0
140 -141 -143 0
140 -225 -141 0
140 -225 -143 0
-140 225 141 0
-140 141 143 0
-140 225 143 0
-141 -68 -142 0
-141 68 142 0
141 68 -142 0
141 -68 142 0
142 193 -67 0
142 -193 67 0
-142 -193 -67 0
-142 193 67 0
-143 226 145 0
-143 226 -70 -144 0
-143 70 144 145 0
-143 226 70 144 0
-143 -70 -144 145 0
143 -226 -145 0
143 -226 70 -144 0
143 70 -144 -145 0
143 -226 -70 144 0
143 -70 144 -145 0
144 194 -69 0
144 -194 69 0
-144 -194 -69 0
-144 194 69 0
-145 146 167 0
-145 227 167 0
-145 227 146 0
145 -227 -167 0
145 -227 -146 0
145 -146 -167 0
-146 228 147 0
-146 228 -74 -166 0
-146 228 74 166 0
-146 74 147 166 0
-146 -74 147 -166 0
146 -228 -147 0
146 74 -147 -166 0
146 -228 -74 166 0
146 -228 74 -166 0
146 -74 -147 166 0
-147 229 148 0
-147 229 -76 -165 0
-147 229 76 165 0
-147 76 148 165 0
-147 -76 148 -165 0
147 -229 -148 0
147 76 -148 -165 0
147 -229 -76 165 0
147 -229 76 -165 0
147 -76 -148 165 0
-148 230 149 0
-148 230 -78 -164 0
-148 230 78 164 0
-148 78 149 164 0
-148 -78 149 -164 0
148 -230 -149 0
148 78 -149 -164 0
148 -230 -78 164 0
148 -230 78 -164 0
148 -78 -149 164 0
-149 231 150 0
-149 231 -80 -163 0
-149 231 80 163 0
-149 80 150 163 0
-149 -80 150 -163 0
149 -231 -150 0
149 -231 -80 163 0
149 -231 80 -163 0
149 80 -150 -163 0
149 -80 -150 163 0
150 -232 -151 0
150 -232 -82 162 0
150 -232 82 -162 0
150 82 -151 -162 0
150 -82 -151 162 0
-150 232 151 0
-150 232 -82 -162 0
-150 232 82 162 0
-150 82 151 162 0
-150 -82 151 -162 0
151 -233 -152 0
151 -152 -154 0
151 -233 -154 0
-151 233 154 0
-151 152 154 0
-151 233 152 0
152 84 -153 0
152 -84 153 0
-152 -84 -153 0
-152 84 153 0
153 201 -83 0
153 -201 83 0
-153 -201 -83 0
-153 201 83 0
154 -234 -155 0
154 -155 -157 0
154 -234 -157 0
-154 234 157 0
-154 155 157 0
-154 234 155 0
155 86 -156 0
155 -86 156 0
-155 -86 -156 0
-155 86 156 0
156 202 -85 0
156 -202 85 0
-156 -202 -85 0
-156 202 85 0
157 -235 -159 0
157 -159 -161 0
157 -235 -161 0
157 -235 -158 0
157 -158 -159 0
-157 235 159 0
-157 235 158 161 0
-157 158 159 161 0
158 204 -236 0
158 204 -91 0
-158 -204 0
-158 236 91 0
159 89 -160 0
159 -89 160 0
-159 -89 -160 0
-159 89 160 0
160 203 -87 0
160 -203 87 0
-160 -203 -87 0
-160 203 87 0
161 -236 -91 0
161 237 238 -91 0
-161 91 0
-161 236 -237 0
-161 236 -238 0
162 200 -81 0
162 -200 81 0
-162 -200 -81 0
-162 200 81 0
163 199 -79 0
163 -199 79 0
-163 -199 -79 0
-163 199 79 0
164 198 -77 0
164 -198 77 0
-164 -198 -77 0
-164 198 77 0
165 197 -75 0
165 -197 75 0
-165 -197 -75 0
-165 197 75 0
166 196 -73 0
166 -196 73 0
-166 -196 -73 0
-166 196 73 0
167 72 -168 0
167 -72 168 0
-167 -72 -168 0
-167 72 168 0
168 195 -71 0
168 -195 71 0
-168 -195 -71 0
-168 195 71 0
169 176 -208 34 0
169 176 -7 34 0
169 176 -208 -7 0
169 -208 -7 34 0
-169 -176 208 0
-169 7 -34 0
-169 -176 -34 0
-169 208 -34 0
-169 -176 7 0
-169 208 7 0
-170 -95 92 171 -172 0
-170 -95 -92 -171 -172 0
-170 95 92 171 172 0
-170 95 -92 -171 172 0
170 95 -172 0
170 -95 172 0
170 -92 171 0
170 92 -171 0
171 -7 34 0
-171 7 0
-171 -34 0
172 -8 36 0
-172 8 0
-172 -36 0
-173 10 174 0
-173 -40 174 0
-173 -101 174 0
173 -174 0
173 -10 40 101 0
174 -9 38 98 0
-174 9 0
-174 -98 0
-174 -38 0
-239 0
2 0

